
Log started (V11.0.0) Sat Apr 19 08:57:28 2008

Tried aggregator 1 time.
Reduced MIP has 510 rows, 5001 columns, and 10010 nonzeros.
Presolve time =    0.05 sec.
Clique table members: 500.
MIP emphasis: balance optimality and feasibility.
MIP search method: dynamic search.
Parallel mode: none, using 1 thread.
Root relaxation solution time =    0.13 sec.

        Nodes                                         Cuts/
   Node  Left     Objective  IInf  Best Integer     Best Node    ItCnt     Gap

*     0+    0                        27423.0000      862.5107      582   96.85%
*     0+    0                          887.0000      862.5107      582    2.76%
      0     0      863.0000    24      887.0000     Fract: 10      598    2.71%
*     0+    0                          881.0000      863.0000      598    2.04%
      0     0      863.0000    24      881.0000     Covers: 1      601    2.04%
      0     0      863.0000    26      881.0000     Covers: 1      616    2.04%
*     0+    0                          879.0000      863.0000      616    1.82%
*     0+    0                          878.0000      863.0000      616    1.71%
*     0+    0                          873.0000      863.0000      616    1.15%
*     0+    0                          870.0000      863.0000      616    0.80%
      0     2      863.0000    26      870.0000      863.0000      616    0.80%
*    40+   36                          868.0000      863.0000     2701    0.58%
    100    81      865.0000    15      868.0000      863.0000     4834    0.58%
    200   143      867.0000    18      868.0000      863.0000     8092    0.58%
*   263+  121                          867.0000      863.0000     9875    0.46%
*   263+   89                          866.0000      863.0000     9875    0.35%
    300   121      864.0000    20      866.0000      863.0000    10465    0.35%
    400   194    infeasible            866.0000      863.0000    12646    0.35%
    500   251      865.0000    18      866.0000      863.0000    14219    0.35%
    600   285      865.0000    22      866.0000      863.0000    17023    0.35%
    700   303      865.0000    24      866.0000      863.0000    19135    0.35%
    800   299      864.0000    37      866.0000      863.0000    22110    0.35%
    900   317      864.0430    25      866.0000      863.0000    26169    0.35%
   1000   366      863.0000    38      866.0000      863.0000    28861    0.35%
Elapsed time =  16.73 sec. (tree size =  0.29 MB, solutions = 10)
   1100   452      864.0000    21      866.0000      863.0000    30972    0.35%
   1200   526      864.0000     8      866.0000      863.0000    33726    0.35%
   1300   612      864.0389    24      866.0000      863.0000    36628    0.35%
*  1333+  417                          865.0000      863.0000    37404    0.23%
   1400   474      864.0000    22      865.0000      863.0000    38982    0.23%
   1500   558      864.0000    21      865.0000      863.0000    43012    0.23%
   1600   627      864.0000    34      865.0000      863.0000    47140    0.23%
   1700   709      864.0000    41      865.0000      863.0000    50548    0.23%
   1800   802      864.0000    26      865.0000      863.0000    52598    0.23%
   1900   887      864.0000    16      865.0000      863.0000    55078    0.23%
   2000   971      864.0000    23      865.0000      863.0000    58033    0.23%
Elapsed time =  24.91 sec. (tree size =  0.83 MB, solutions = 11)
   2100  1061      864.0000    23      865.0000      863.0000    60942    0.23%
   2200  1141      864.0000    14      865.0000      863.0000    63598    0.23%
   2300  1232      864.0000    22      865.0000      863.0000    65595    0.23%
   2400  1307      864.0000    23      865.0000      863.0000    70724    0.23%
   2500  1381      864.0000    48      865.0000      863.0000    74471    0.23%
   2600  1468      864.0000    18      865.0000      863.0000    77193    0.23%
   2700  1552      864.0000    32      865.0000      863.0000    80643    0.23%
   2800  1646      864.0000    26      865.0000      863.0000    83434    0.23%
   2900  1730      864.0000    24      865.0000      863.0000    86661    0.23%
   3000  1817      864.0000    30      865.0000      863.0000    90136    0.23%
Elapsed time =  34.64 sec. (tree size =  1.60 MB, solutions = 11)
   3100  1900      864.0000    23      865.0000      863.0000    93654    0.23%
   3200  1983      864.0000    26      865.0000      863.0000    97485    0.23%
   3300  2077      864.0000    23      865.0000      863.0000   100414    0.23%
   3400  2168      864.0000    26      865.0000      863.0000   104042    0.23%
   3500  2254      864.0000    31      865.0000      863.0000   107734    0.23%
   3600  2338      864.0000    27      865.0000      863.0000   111245    0.23%
   3700  2419      864.0000    28      865.0000      863.0000   115889    0.23%
   3800  2505      864.0000    34      865.0000      863.0000   118657    0.23%
   3900  2596      864.0000    21      865.0000      863.0000   121342    0.23%
   4000  2681      863.0000    64      865.0000      863.0000   124958    0.23%
Elapsed time =  46.63 sec. (tree size =  2.43 MB, solutions = 11)
   4100  2763      864.0000    29      865.0000      863.0000   129357    0.23%
   4200  2846    infeasible            865.0000      863.0000   132912    0.23%
   4300  2938      864.0000    38      865.0000      863.0000   135799    0.23%
   4400  3027      864.0000    32      865.0000      863.0000   140306    0.23%
   4500  3115      863.0000    74      865.0000      863.0000   144466    0.23%
   4600  3208      864.0000    26      865.0000      863.0000   146895    0.23%
   4700  3303      864.0000    42      865.0000      863.0000   150163    0.23%
   4800  3387      864.0000    34      865.0000      863.0000   152926    0.23%
   4900  3480      864.0000    33      865.0000      863.0000   156196    0.23%
   5000  3568      864.0000    19      865.0000      863.0000   159359    0.23%
Elapsed time =  59.98 sec. (tree size =  3.24 MB, solutions = 11)
   5100  3647      864.0000    30      865.0000      863.0000   162523    0.23%
   5200  3728      864.0000    39      865.0000      863.0000   166363    0.23%
   5300  3817      864.0000    24      865.0000      863.0000   169763    0.23%
   5400  3904      864.0000    22      865.0000      863.0000   173485    0.23%
   5500  3976      864.0000    16      865.0000      863.0000   177906    0.23%
   5600  4067      864.0000    35      865.0000      863.0000   180418    0.23%
   5700  4153      864.0000    30      865.0000      863.0000   184027    0.23%
   5800  4229      864.0000    29      865.0000      863.0000   187908    0.23%
   5900  4317      864.0000    28      865.0000      863.0000   191618    0.23%
   6000  4401      864.0000    30      865.0000      863.0000   195506    0.23%
Elapsed time =  71.97 sec. (tree size =  4.08 MB, solutions = 11)
   6100  4496      864.0000    30      865.0000      863.0000   197644    0.23%
   6200  4585      864.0000    16      865.0000      863.0000   201526    0.23%
   6300  4668      864.0000    23      865.0000      863.0000   205146    0.23%
   6400  4755      864.0000    37      865.0000      863.0000   209049    0.23%
   6500  4837      864.0000    34      865.0000      863.0000   212567    0.23%
   6600  4913      864.0000    17      865.0000      863.0000   216467    0.23%
   6700  5006      864.0000    36      865.0000      863.0000   220385    0.23%
   6800  5094      864.0000    41      865.0000      863.0000   223966    0.23%
   6900  5182      864.0000    24      865.0000      863.0000   227275    0.23%
   7000  5269      864.0000    30      865.0000      863.0000   231828    0.23%
Elapsed time =  84.20 sec. (tree size =  4.89 MB, solutions = 11)
   7100  5344      864.0000    38      865.0000      863.0000   236780    0.23%
   7200  5434      863.0508    68      865.0000      863.0000   240455    0.23%
   7300  5520      863.2847    55      865.0000      863.0000   244233    0.23%
   7400  5609      864.0000    19      865.0000      863.0000   247238    0.23%
   7500  5704      864.0000    24      865.0000      863.0000   249795    0.23%
   7600  5795      864.0000    18      865.0000      863.0000   252055    0.23%
   7700  5881      864.0000    28      865.0000      863.0000   256548    0.23%
   7800  5966    infeasible            865.0000      863.0000   260579    0.23%
   7900  6060      864.0000    30      865.0000      863.0000   263336    0.23%
   8000  6148      864.0000    22      865.0000      863.0000   266576    0.23%
Elapsed time =  96.80 sec. (tree size =  5.72 MB, solutions = 11)
   8100  6241      864.0000    26      865.0000      863.0000   269899    0.23%
   8200  6329      864.0000    28      865.0000      863.0000   272927    0.23%
   8300  6420      863.0000    58      865.0000      863.0000   276951    0.23%
   8400  6512      864.0000    25      865.0000      863.0000   280135    0.23%
   8500  6598      864.0000    30      865.0000      863.0000   283752    0.23%
   8600  6683      864.0000    29      865.0000      863.0000   287337    0.23%
   8700  6774      864.0000    23      865.0000      863.0000   290471    0.23%
   8800  6862      864.0000    18      865.0000      863.0000   294125    0.23%
   8900  6945      864.0000    35      865.0000      863.0000   298311    0.23%
   9000  7029      863.0384    77      865.0000      863.0000   302797    0.23%
Elapsed time = 110.78 sec. (tree size =  6.54 MB, solutions = 11)
   9100  7114      864.0000    34      865.0000      863.0000   307105    0.23%
   9200  7209      864.0000    34      865.0000      863.0000   310945    0.23%
   9300  7299      864.0000    34      865.0000      863.0000   314557    0.23%
   9400  7394      864.0000    31      865.0000      863.0000   317789    0.23%
   9500  7485      864.0000    20      865.0000      863.0000   320008    0.23%
   9600  7576      864.0000    29      865.0000      863.0000   323471    0.23%
   9700  7663      864.0000    34      865.0000      863.0000   327414    0.23%
   9800  7756      864.0000    23      865.0000      863.0000   330565    0.23%
   9900  7851      864.0000    36      865.0000      863.0000   333289    0.23%
  10000  7941      864.0000    18      865.0000      863.0000   336435    0.23%
Elapsed time = 124.94 sec. (tree size =  7.40 MB, solutions = 11)
  10100  8030      864.0000    32      865.0000      863.0000   340331    0.23%
  10200  8121      864.0000    37      865.0000      863.0000   343428    0.23%
  10300  8216      864.0000    23      865.0000      863.0000   347147    0.23%
  10400  8311      864.0000    24      865.0000      863.0000   350372    0.23%
  10500  8404      864.0000    38      865.0000      863.0000   354384    0.23%
  10600  8488      864.0000    32      865.0000      863.0000   358542    0.23%
  10700  8577    infeasible            865.0000      863.0000   362497    0.23%
  10800  8671      864.0000    28      865.0000      863.0000   365851    0.23%
  10900  8762    infeasible            865.0000      863.0000   369375    0.23%
  11000  8852      864.0000    46      865.0000      863.0000   372972    0.23%
Elapsed time = 139.80 sec. (tree size =  8.39 MB, solutions = 11)
  11100  8939      864.0000    33      865.0000      863.0000   376417    0.23%
  11200  9028      864.0000    22      865.0000      863.0000   380382    0.23%
  11300  9110      864.0000    30      865.0000      863.0000   384376    0.23%
  11400  9203      864.0000    29      865.0000      863.0000   387249    0.23%
  11500  9285      864.0000    34      865.0000      863.0000   391389    0.23%
  11600  9380      864.0000    32      865.0000      863.0000   394161    0.23%
  11700  9473      864.0000    34      865.0000      863.0000   398097    0.23%
  11800  9566      864.0000    32      865.0000      863.0000   401955    0.23%
  11900  9652      864.0000    16      865.0000      863.0000   405614    0.23%
  12000  9747      864.0000    28      865.0000      863.0000   408485    0.23%
Elapsed time = 157.72 sec. (tree size =  9.23 MB, solutions = 11)
  12100  9835      864.0000    28      865.0000      863.0000   411334    0.23%
  12200  9923      864.0000    58      865.0000      863.0000   414121    0.23%
  12300 10018      864.0000    30      865.0000      863.0000   416700    0.23%
  12400 10104      864.0000    24      865.0000      863.0000   419722    0.23%
  12500 10197      864.0000    32      865.0000      863.0000   423068    0.23%
  12600 10290      864.0000    34      865.0000      863.0000   426586    0.23%
  12700 10376      864.0000    37      865.0000      863.0000   430667    0.23%
  12800 10471      864.0000    14      865.0000      863.0000   432859    0.23%
  12900 10562      864.0000    17      865.0000      863.0000   435248    0.23%
  13000 10657      864.0000    23      865.0000      863.0000   438603    0.23%
Elapsed time = 171.77 sec. (tree size = 10.10 MB, solutions = 11)
  13100 10748    infeasible            865.0000      863.0000   441944    0.23%
  13200 10840      864.0000    34      865.0000      863.0000   444817    0.23%
  13300 10933      864.0000    27      865.0000      863.0000   448249    0.23%
  13400 11015      864.0000    28      865.0000      863.0000   451792    0.23%
  13500 11096    infeasible            865.0000      863.0000   456297    0.23%
  13600 11188      864.0000    27      865.0000      863.0000   459213    0.23%
  13700 11281      864.0000    31      865.0000      863.0000   462023    0.23%
  13800 11370      864.0000    33      865.0000      863.0000   466604    0.23%
  13900 11456      864.0000    30      865.0000      863.0000   470595    0.23%
  14000 11551      864.0000    46      865.0000      863.0000   473475    0.23%
Elapsed time = 188.97 sec. (tree size = 10.95 MB, solutions = 11)
  14100 11633      864.0000    31      865.0000      863.0000   477768    0.23%
  14200 11728      864.0000    28      865.0000      863.0000   480570    0.23%
* 14220    43      integral     0      864.0000      863.0000   481848    0.12%

Cover cuts applied:  683
Mixed integer rounding cuts applied:  18
Gomory fractional cuts applied:  6

Solution pool: 12 solutions saved.

MIP - Integer optimal solution:  Objective = 8.6400000000e+002
Solution time =  206.78 sec.  Iterations = 509870  Nodes = 14274


Incumbent solution
Variable Name           Solution Value
Cmax                        864.000000
X_1_9                         1.000000
X_2_6                         1.000000
X_3_6                         1.000000
X_4_1                         1.000000
X_5_8                         1.000000
X_6_4                         1.000000
X_7_8                         1.000000
X_8_3                         1.000000
X_9_10                        1.000000
X_10_9                        1.000000
X_11_1                        1.000000
X_12_9                        1.000000
X_13_7                        1.000000
X_14_1                        1.000000
X_15_7                        1.000000
X_16_6                        1.000000
X_17_5                        1.000000
X_18_6                        1.000000
X_19_4                        1.000000
X_20_6                        1.000000
X_21_10                       1.000000
X_22_2                        1.000000
X_23_2                        1.000000
X_24_9                        1.000000
X_25_10                       1.000000
X_26_8                        1.000000
X_27_7                        1.000000
X_28_9                        1.000000
X_29_3                        1.000000
X_30_5                        1.000000
X_31_3                        1.000000
X_32_3                        1.000000
X_33_9                        1.000000
X_34_2                        1.000000
X_35_8                        1.000000
X_36_1                        1.000000
X_37_10                       1.000000
X_38_7                        1.000000
X_39_2                        1.000000
X_40_6                        1.000000
X_41_5                        1.000000
X_42_2                        1.000000
X_43_5                        1.000000
X_44_7                        1.000000
X_45_4                        1.000000
X_46_3                        1.000000
X_47_3                        1.000000
X_48_2                        1.000000
X_49_4                        1.000000
X_50_6                        1.000000
X_51_7                        1.000000
X_52_8                        1.000000
X_53_6                        1.000000
X_54_10                       1.000000
X_55_3                        1.000000
X_56_3                        1.000000
X_57_7                        1.000000
X_58_7                        1.000000
X_59_9                        1.000000
X_60_4                        1.000000
X_61_1                        1.000000
X_62_1                        1.000000
X_63_1                        1.000000
X_64_9                        1.000000
X_65_4                        1.000000
X_66_7                        1.000000
X_67_6                        1.000000
X_68_5                        1.000000
X_69_8                        1.000000
X_70_3                        1.000000
X_71_1                        1.000000
X_72_2                        1.000000
X_73_6                        1.000000
X_74_7                        1.000000
X_75_4                        1.000000
X_76_8                        1.000000
X_77_6                        1.000000
X_78_9                        1.000000
X_79_6                        1.000000
X_80_8                        1.000000
X_81_5                        1.000000
X_82_3                        1.000000
X_83_6                        1.000000
X_84_5                        1.000000
X_85_7                        1.000000
X_86_2                        1.000000
X_87_9                        1.000000
X_88_9                        1.000000
X_89_2                        1.000000
X_90_4                        1.000000
X_91_2                        1.000000
X_92_7                        1.000000
X_93_1                        1.000000
X_94_1                        1.000000
X_95_3                        1.000000
X_96_2                        1.000000
X_97_7                        1.000000
X_98_1                        1.000000
X_99_1                        1.000000
X_100_1                       1.000000
X_101_5                       1.000000
X_102_6                       1.000000
X_103_4                       1.000000
X_104_2                       1.000000
X_105_1                       1.000000
X_106_9                       1.000000
X_107_9                       1.000000
X_108_7                       1.000000
X_109_1                       1.000000
X_110_1                       1.000000
X_111_1                       1.000000
X_112_4                       1.000000
X_113_8                       1.000000
X_114_9                       1.000000
X_115_6                       1.000000
X_116_2                       1.000000
X_117_10                      1.000000
X_118_10                      1.000000
X_119_9                       1.000000
X_120_8                       1.000000
X_121_5                       1.000000
X_122_1                       1.000000
X_123_3                       1.000000
X_124_2                       1.000000
X_125_9                       1.000000
X_126_8                       1.000000
X_127_3                       1.000000
X_128_4                       1.000000
X_129_6                       1.000000
X_130_5                       1.000000
X_131_2                       1.000000
X_132_4                       1.000000
X_133_7                       1.000000
X_134_2                       1.000000
X_135_10                      1.000000
X_136_2                       1.000000
X_137_3                       1.000000
X_138_7                       1.000000
X_139_3                       1.000000
X_140_3                       1.000000
X_141_6                       1.000000
X_142_1                       1.000000
X_143_6                       1.000000
X_144_2                       1.000000
X_145_8                       1.000000
X_146_10                      1.000000
X_147_6                       1.000000
X_148_4                       1.000000
X_149_10                      1.000000
X_150_8                       1.000000
X_151_7                       1.000000
X_152_6                       1.000000
X_153_9                       1.000000
X_154_4                       1.000000
X_155_7                       1.000000
X_156_3                       1.000000
X_157_1                       1.000000
X_158_4                       1.000000
X_159_2                       1.000000
X_160_5                       1.000000
X_161_7                       1.000000
X_162_8                       1.000000
X_163_4                       1.000000
X_164_7                       1.000000
X_165_2                       1.000000
X_166_8                       1.000000
X_167_10                      1.000000
X_168_1                       1.000000
X_169_8                       1.000000
X_170_3                       1.000000
X_171_7                       1.000000
X_172_1                       1.000000
X_173_7                       1.000000
X_174_10                      1.000000
X_175_2                       1.000000
X_176_7                       1.000000
X_177_8                       1.000000
X_178_5                       1.000000
X_179_9                       1.000000
X_180_8                       1.000000
X_181_2                       1.000000
X_182_7                       1.000000
X_183_3                       1.000000
X_184_5                       1.000000
X_185_4                       1.000000
X_186_10                      1.000000
X_187_5                       1.000000
X_188_5                       1.000000
X_189_7                       1.000000
X_190_10                      1.000000
X_191_5                       1.000000
X_192_1                       1.000000
X_193_6                       1.000000
X_194_4                       1.000000
X_195_7                       1.000000
X_196_1                       1.000000
X_197_8                       1.000000
X_198_10                      1.000000
X_199_4                       1.000000
X_200_9                       1.000000
X_201_3                       1.000000
X_202_2                       1.000000
X_203_5                       1.000000
X_204_3                       1.000000
X_205_7                       1.000000
X_206_6                       1.000000
X_207_3                       1.000000
X_208_9                       1.000000
X_209_5                       1.000000
X_210_1                       1.000000
X_211_10                      1.000000
X_212_7                       1.000000
X_213_10                      1.000000
X_214_7                       1.000000
X_215_6                       1.000000
X_216_3                       1.000000
X_217_10                      1.000000
X_218_6                       1.000000
X_219_4                       1.000000
X_220_7                       1.000000
X_221_10                      1.000000
X_222_4                       1.000000
X_223_5                       1.000000
X_224_1                       1.000000
X_225_2                       1.000000
X_226_3                       1.000000
X_227_7                       1.000000
X_228_2                       1.000000
X_229_5                       1.000000
X_230_4                       1.000000
X_231_2                       1.000000
X_232_5                       1.000000
X_233_3                       1.000000
X_234_9                       1.000000
X_235_2                       1.000000
X_236_5                       1.000000
X_237_6                       1.000000
X_238_2                       1.000000
X_239_6                       1.000000
X_240_6                       1.000000
X_241_2                       1.000000
X_242_6                       1.000000
X_243_1                       1.000000
X_244_1                       0.000000
X_244_3                       1.000000
X_245_6                       1.000000
X_246_10                      1.000000
X_247_6                       1.000000
X_248_6                       1.000000
X_249_3                       1.000000
X_250_9                       1.000000
X_251_9                       1.000000
X_252_10                      1.000000
X_253_3                       1.000000
X_254_7                       1.000000
X_255_5                       1.000000
X_256_10                      1.000000
X_257_9                       1.000000
X_258_2                       1.000000
X_259_3                       1.000000
X_260_5                       1.000000
X_261_10                      1.000000
X_262_8                       1.000000
X_263_6                       1.000000
X_264_1                       1.000000
X_265_8                       1.000000
X_266_10                      1.000000
X_267_3                       1.000000
X_268_9                       1.000000
X_269_4                       1.000000
X_270_3                       1.000000
X_271_9                       1.000000
X_272_9                       1.000000
X_273_9                       1.000000
X_274_9                       1.000000
X_275_9                       1.000000
X_276_10                      1.000000
X_277_8                       1.000000
X_278_9                       1.000000
X_279_4                       1.000000
X_280_7                       1.000000
X_281_2                       1.000000
X_282_5                       1.000000
X_283_1                       1.000000
X_284_6                       1.000000
X_285_6                       1.000000
X_286_5                       1.000000
X_287_1                       1.000000
X_288_2                       1.000000
X_289_4                       1.000000
X_290_7                       1.000000
X_291_3                       1.000000
X_292_9                       1.000000
X_293_9                       1.000000
X_294_7                       1.000000
X_295_10                      1.000000
X_296_3                       1.000000
X_297_2                       1.000000
X_298_8                       1.000000
X_299_3                       1.000000
X_300_6                       1.000000
X_301_4                       1.000000
X_302_3                       1.000000
X_303_7                       1.000000
X_304_1                       1.000000
X_305_4                       1.000000
X_306_6                       1.000000
X_307_6                       1.000000
X_308_5                       1.000000
X_309_10                      1.000000
X_310_6                       1.000000
X_311_8                       1.000000
X_312_2                       1.000000
X_313_4                       1.000000
X_314_6                       1.000000
X_315_7                       1.000000
X_316_2                       1.000000
X_317_7                       1.000000
X_318_3                       1.000000
X_319_2                       1.000000
X_320_1                       1.000000
X_321_9                       1.000000
X_322_10                      1.000000
X_323_10                      1.000000
X_324_4                       1.000000
X_325_1                       1.000000
X_326_7                       1.000000
X_327_5                       1.000000
X_328_9                       1.000000
X_329_5                       1.000000
X_330_8                       1.000000
X_331_4                       1.000000
X_332_4                       1.000000
X_333_10                      1.000000
X_334_7                       1.000000
X_335_3                       1.000000
X_336_9                       1.000000
X_337_7                       1.000000
X_338_9                       1.000000
X_339_8                       1.000000
X_340_8                       1.000000
X_341_10                      1.000000
X_342_4                       1.000000
X_343_10                      1.000000
X_344_8                       1.000000
X_345_3                       1.000000
X_346_6                       1.000000
X_347_8                       1.000000
X_348_2                       1.000000
X_349_1                       1.000000
X_349_3                       0.000000
X_350_9                       1.000000
X_351_4                       1.000000
X_352_3                       1.000000
X_353_1                       1.000000
X_354_10                      1.000000
X_355_5                       1.000000
X_356_2                       1.000000
X_357_9                       1.000000
X_358_3                       1.000000
X_359_9                       1.000000
X_360_8                       1.000000
X_361_7                       1.000000
X_362_5                       1.000000
X_363_9                       1.000000
X_364_1                       1.000000
X_365_8                       1.000000
X_366_2                       1.000000
X_367_10                      1.000000
X_368_10                      1.000000
X_369_5                       1.000000
X_370_10                      1.000000
X_371_3                       1.000000
X_372_1                       1.000000
X_373_4                       1.000000
X_374_2                       1.000000
X_375_9                       1.000000
X_376_3                       1.000000
X_377_9                       1.000000
X_378_8                       1.000000
X_379_8                       1.000000
X_380_2                       1.000000
X_381_6                       1.000000
X_382_7                       1.000000
X_383_7                       1.000000
X_384_10                      1.000000
X_385_9                       1.000000
X_386_4                       1.000000
X_387_10                      1.000000
X_388_6                       1.000000
X_389_6                       1.000000
X_390_1                       1.000000
X_391_8                       1.000000
X_392_5                       1.000000
X_393_6                       1.000000
X_394_5                       1.000000
X_395_6                       1.000000
X_396_9                       1.000000
X_397_1                       1.000000
X_398_1                       1.000000
X_399_7                       1.000000
X_400_10                      1.000000
X_401_5                       1.000000
X_402_10                      1.000000
X_403_4                       1.000000
X_404_8                       1.000000
X_405_9                       1.000000
X_406_6                       1.000000
X_407_3                       1.000000
X_408_10                      1.000000
X_409_10                      1.000000
X_410_5                       1.000000
X_411_8                       1.000000
X_412_8                       1.000000
X_413_2                       1.000000
X_414_8                       1.000000
X_415_4                       1.000000
X_416_10                      1.000000
X_417_10                      1.000000
X_418_5                       1.000000
X_419_9                       1.000000
X_420_5                       1.000000
X_421_10                      1.000000
X_422_9                       1.000000
X_423_4                       1.000000
X_424_4                       1.000000
X_425_1                       1.000000
X_426_10                      1.000000
X_427_8                       1.000000
X_428_6                       1.000000
X_429_1                       1.000000
X_430_7                       1.000000
X_431_1                      -0.000000
X_431_10                      1.000000
X_432_8                       1.000000
X_433_5                       1.000000
X_434_4                       1.000000
X_435_4                       1.000000
X_436_3                       1.000000
X_437_7                       1.000000
X_438_9                       1.000000
X_439_4                       1.000000
X_440_2                       1.000000
X_441_7                       1.000000
X_442_6                       1.000000
X_443_1                       1.000000
X_444_1                       1.000000
X_445_6                       1.000000
X_446_5                       1.000000
X_447_8                       1.000000
X_448_4                       1.000000
X_449_8                       1.000000
X_450_6                       1.000000
X_451_7                       1.000000
X_452_2                       1.000000
X_453_3                       1.000000
X_454_8                       1.000000
X_455_2                       1.000000
X_456_2                       1.000000
X_457_8                       1.000000
X_458_3                       1.000000
X_459_8                       1.000000
X_460_10                      1.000000
X_461_7                       1.000000
X_462_1                       1.000000
X_463_5                       1.000000
X_464_2                       1.000000
X_465_4                       1.000000
X_466_8                       1.000000
X_467_8                       1.000000
X_468_6                       1.000000
X_469_10                      1.000000
X_470_4                       1.000000
X_471_2                       1.000000
X_472_8                       1.000000
X_473_5                       1.000000
X_474_10                      1.000000
X_475_9                       1.000000
X_476_2                       1.000000
X_477_1                       1.000000
X_478_5                       1.000000
X_479_1                       1.000000
X_480_5                       1.000000
X_481_3                       1.000000
X_482_4                       1.000000
X_483_5                       1.000000
X_484_1                       1.000000
X_485_3                       1.000000
X_486_1                       1.000000
X_487_9                       1.000000
X_488_4                       1.000000
X_489_8                       1.000000
X_490_5                       1.000000
X_491_5                       1.000000
X_492_3                       1.000000
X_493_2                       1.000000
X_494_3                       1.000000
X_495_5                       1.000000
X_496_1                       1.000000
X_497_2                       1.000000
X_498_1                       1.000000
X_499_4                       1.000000
X_500_1                       1.000000
All other variables in the range 1-5001 are 0.
